<number of tasks>
32

<cycle time>
1572

<task times>
1 458
2 276
3 520
4 1400
5 352
6 196
7 214
8 456
9 646
10 512
11 408
12 262
13 544
14 202
15 458
16 694
17 616
18 678
19 328
20 324
21 100
22 352
23 544
24 500
25 382
26 858
27 388
28 352
29 428
30 238
31 258
32 196

<precedence relations>
1,5
2,6
3,9
4,15
5,6
6,7
6,8
6,9
7,21
8,21
9,10
9,11
10,16
11,12
12,13
13,14
13,15
14,16
14,17
15,17
16,18
17,19
18,21
19,20
20,21
21,22
21,23
21,24
22,25
23,32
24,32
25,26
26,27
27,28
28,29
29,30
30,31
31,32

<setup times forward>
1,2:62
1,4:45
2,1:62
2,3:62
2,4:17
2,5:62
3,2:62
3,4:45
3,6:62
3,7:70
3,8:47
3,9:62
4,1:45
4,2:17
4,3:45
4,5:45
4,6:17
4,7:25
4,8:2
4,9:17
4,10:16
4,11:17
4,12:16
4,13:16
4,14:11
4,15:11
4,16:11
4,18:25
5,2:62
5,4:45
5,6:62
6,3:62
6,4:17
6,7:8
6,8:15
7,3:70
7,4:25
7,8:23
7,9:8
7,10:41
7,11:8
7,12:41
7,13:41
7,14:36
7,15:36
7,16:36
7,19:23
7,20:23
7,21:23
8,3:47
8,4:2
8,7:23
8,9:15
8,10:18
8,11:15
8,12:18
8,13:18
8,14:13
8,15:13
8,16:13
8,17:23
8,18:23
9,4:17
9,7:8
9,8:15
9,10:33
10,4:16
10,7:41
10,8:18
10,11:33
10,14:5
10,15:5
10,16:5
10,17:41
10,19:18
10,20:18
11,4:17
11,7:8
11,8:15
11,10:33
11,12:33
12,4:16
12,7:41
12,8:18
13,4:16
13,7:41
13,8:18
13,14:5
13,15:5
14,4:11
14,7:36
14,8:13
14,10:5
14,17:36
15,7:36
15,8:13
15,10:5
15,17:36
15,18:36
16,4:11
16,7:36
16,8:13
16,17:36
16,18:36
16,19:13
16,20:13
17,8:23
17,10:41
17,16:36
17,19:23
18,4:25
18,8:23
18,15:36
18,19:23
18,20:23
18,21:23
19,7:23
19,10:18
19,16:13
19,18:23
20,7:23
20,10:18
20,16:13
20,18:23
21,23:37
21,24:37
22,23:37
22,24:37
22,25:37
23,22:37
23,26:63
23,27:63
23,28:23
23,29:23
23,30:23
23,31:23
23,32:23
24,22:37
24,26:63
24,27:63
24,28:23
24,29:23
24,30:23
24,31:23
24,32:23
25,26:63
26,23:63
26,24:63
27,23:63
27,24:63
27,28:40
28,23:23
28,24:23
29,23:23
29,24:23
30,23:23
30,24:23
31,23:23
31,24:23

<setup times backward>
1,1:12
1,2:74
1,3:12
1,4:57
2,2:12
3,1:12
3,2:74
3,3:12
3,4:57
3,5:12
3,6:74
3,7:82
3,8:59
4,2:29
4,4:12
4,6:29
4,7:37
4,8:14
4,9:29
4,11:29
4,14:1
4,16:1
4,18:37
5,1:12
5,2:74
5,3:12
5,4:57
5,5:12
6,2:12
6,6:12
7,2:4
7,6:4
7,7:12
7,9:4
7,11:4
7,17:12
7,18:12
8,2:27
8,4:10
8,6:27
8,7:35
8,8:12
8,9:27
8,11:27
8,17:35
8,18:35
8,19:12
8,20:12
9,2:12
9,6:12
9,7:20
9,9:12
10,2:45
10,4:28
10,6:45
10,7:53
10,8:30
10,9:45
10,10:12
10,11:45
10,12:12
10,13:12
10,14:17
10,15:17
10,17:53
10,19:30
10,20:30
11,2:12
11,6:12
11,7:20
11,9:12
11,11:12
12,2:45
12,4:28
12,6:45
12,7:53
12,8:30
12,9:45
12,10:12
12,11:45
12,12:12
13,2:45
13,4:28
13,6:45
13,7:53
13,8:30
13,9:45
13,10:12
13,11:45
13,12:12
13,13:12
14,2:40
14,4:23
14,6:40
14,7:48
14,8:25
14,9:40
14,10:7
14,11:40
14,12:7
14,13:7
14,14:12
14,15:12
15,2:40
15,4:23
15,6:40
15,7:48
15,8:25
15,9:40
15,10:7
15,11:40
15,12:7
15,13:7
15,14:12
15,15:12
15,16:12
15,18:48
16,2:40
16,4:23
16,6:40
16,7:48
16,8:25
16,9:40
16,10:7
16,11:40
16,12:7
16,13:7
16,14:12
16,15:12
16,16:12
16,17:48
16,19:25
16,20:25
17,2:4
17,6:4
17,7:12
17,9:4
17,11:4
17,17:12
17,18:12
18,2:4
18,6:4
18,7:12
18,9:4
18,11:4
18,17:12
18,18:12
19,2:27
19,4:10
19,6:27
19,7:35
19,8:12
19,9:27
19,11:27
19,17:35
19,18:35
19,19:12
20,2:27
20,4:10
20,6:27
20,7:35
20,8:12
20,9:27
20,11:27
20,17:35
20,18:35
20,19:12
20,20:12
21,2:27
21,4:10
21,6:27
21,7:35
21,8:12
21,9:27
21,11:27
21,17:35
21,18:35
21,19:12
21,20:12
21,21:12
22,2:27
22,4:10
22,6:27
22,7:35
22,8:12
22,9:27
22,11:27
22,17:35
22,18:35
22,19:12
22,20:12
22,21:12
22,22:12
22,23:49
22,24:49
23,23:12
23,24:12
23,25:12
24,23:12
24,24:12
24,25:12
25,23:12
25,24:12
25,25:12
26,2:53
26,4:36
26,6:53
26,7:61
26,8:38
26,9:53
26,10:20
26,11:53
26,12:20
26,13:20
26,14:25
26,15:25
26,16:25
26,17:61
26,18:61
26,19:38
26,20:38
26,21:38
26,22:38
26,23:75
26,24:75
26,25:75
26,26:12
27,2:53
27,4:36
27,6:53
27,7:61
27,8:38
27,9:53
27,10:20
27,11:53
27,12:20
27,13:20
27,14:25
27,15:25
27,16:25
27,17:61
27,18:61
27,19:38
27,20:38
27,21:38
27,22:38
27,23:75
27,24:75
27,25:75
27,26:12
27,27:12
28,2:13
28,6:13
28,7:21
28,9:13
28,11:13
28,17:21
28,18:21
28,23:35
28,24:35
28,25:35
28,28:12
29,2:13
29,6:13
29,7:21
29,9:13
29,11:13
29,17:21
29,18:21
29,23:35
29,24:35
29,25:35
29,28:12
29,29:12
30,2:13
30,6:13
30,7:21
30,9:13
30,11:13
30,17:21
30,18:21
30,23:35
30,24:35
30,25:35
30,28:12
30,29:12
30,30:12
31,2:13
31,6:13
31,7:21
31,9:13
31,11:13
31,17:21
31,18:21
31,23:35
31,24:35
31,25:35
31,28:12
31,29:12
31,30:12
31,31:12
32,2:13
32,6:13
32,7:21
32,9:13
32,11:13
32,17:21
32,18:21
32,23:35
32,24:35
32,25:35
32,28:12
32,29:12
32,30:12
32,31:12
32,32:12

<end>

<optimal SALBP-1 value>
10


<rand seed>
467321153

<Lower Bounds>
Lm1=9
Lms1=9
Lm2=2
Lm3=5
Lm4=10
Best=10

<Optimal Stations (Iterations: 10)>
11
